c FILE: petit.col
c Translated by Ed.
c Stanford GraphBase ID: book(?anna?,138,0,1,239,0,0,0)
p edge 8 12
e 1 2
e 1 3
e 1 4
e 1 5
e 2 1
e 2 3
e 2 4
e 2 6
e 3 1
e 3 2
e 4 1
e 4 2
e 5 1
e 5 7
e 5 8
e 6 2
e 6 7
e 6 8
e 7 5
e 7 6
e 7 8
e 8 5
e 8 6
e 8 7